lab2/P2e-pulp.sol
Problem:    
Rows:       10
Columns:    21 (20 integer, 20 binary)
Non-zeros:  56
Status:     INTEGER OPTIMAL
Objective:  OBJ = 0.6922872338 (MINimum)

   No.   Row name        Activity     Lower bound   Upper bound
------ ------------    ------------- ------------- -------------
     1 _C1                         0             0             = 
     2 _C10                        4             4               
     3 _C2                         0             0             = 
     4 _C3                         0             0             = 
     5 _C4                         0             0             = 
     6 _C5                         0             0             = 
     7 _C6                    310.51                      505.67 
     8 _C7                     450.5                      503.68 
     9 _C8                    560.89                      701.78 
    10 _C9                         3             3             = 

   No. Column name       Activity     Lower bound   Upper bound
------ ------------    ------------- ------------- -------------
     1 U                    0.692287             0             3 
     2 x_0_0        *              0             0             1 
     3 x_0_1        *              0             0             1 
     4 x_0_2        *              0             0             1 
     5 y_0          *              0             0             1 
     6 y_1          *              1             0             1 
     7 y_2          *              1             0             1 
     8 y_3          *              1             0             1 
     9 y_4          *              1             0             1 
    10 x_1_0        *              0             0             1 
    11 x_1_1        *              0             0             1 
    12 x_1_2        *              1             0             1 
    13 x_2_0        *              1             0             1 
    14 x_2_1        *              0             0             1 
    15 x_2_2        *              0             0             1 
    16 x_3_0        *              0             0             1 
    17 x_3_1        *              1             0             1 
    18 x_3_2        *              0             0             1 
    19 x_4_0        *              0             0             1 
    20 x_4_1        *              1             0             1 
    21 x_4_2        *              0             0             1 

Integer feasibility conditions:

KKT.PE: max.abs.err = 0.00e+00 on row 0
        max.rel.err = 0.00e+00 on row 0
        High quality

KKT.PB: max.abs.err = 4.44e-16 on row 10
        max.rel.err = 1.11e-16 on row 10
        High quality

End of output
